5000
100
959
626
355
562
255
979
550
548
998
202
741
330
586
809
13
91
377
188
392
726
455
40
858
537
766
34
749
546
339
984
93
137
44
742
559
329
220
686
904
792
398
71
526
323
415
274
114
331
991
520
394
667
648
243
252
511
101
527
935
233
173
974
896
679
542
211
525
254
894
267
862
158
743
177
215
18
3
56
722
486
566
432
194
160
978
917
750
390
678
556
82
425
920
385
83
431
154
236
539
751
351
322
554
581
191
550
76
62
125
986
666
850
659
11
249
738
433
933
799
487
939
391
47
849
944
814
336
277
395
467
590
388
594
697
993
67
38
228
478
517
564
55
397
116
458
234
746
736
389
762
250
727
224
281
954
138
792
453
123
236
716
143
597
293
803
454
340
398
734
35
871
259
722
504
313
327
661
364
282
476
103
967
431
91
900
787
706
376
886
701
68
560
50
160
300
261
515
108
831
303
